(set-logic QF_S)
(declare-fun var0 () String)
(assert (str.in.re var0 (re.++ (re.union (re.union (str.to.re "000") (str.to.re "11")) (re.* (str.to.re "22"))) (re.++ (re.* (re.+ (str.to.re "333"))) (re.++ (re.* (re.* (str.to.re "44"))) (re.++ (re.+ (re.* (str.to.re "5"))) (re.++ (re.+ (re.* (str.to.re "666"))) (re.++ (re.* (re.union (str.to.re "77") (str.to.re "888"))) (re.++ (re.* (re.union (str.to.re "999") (str.to.re "aaa"))) (re.++ (re.union (re.+ (str.to.re "bb")) (re.* (str.to.re "cc"))) (re.++ (re.+ (re.union (str.to.re "ddd") (str.to.re "e"))) (re.* (re.+ (str.to.re "ff"))))))))))))))
(assert (str.in.re var0 (re.++ (re.+ (re.+ (str.to.re "00"))) (re.++ (re.* (re.+ (str.to.re "111"))) (re.++ (re.* (re.union (str.to.re "22") (str.to.re "33"))) (re.++ (re.+ (re.union (str.to.re "44") (str.to.re "555"))) (re.++ (re.+ (re.+ (str.to.re "6"))) (re.++ (re.union (re.+ (str.to.re "777")) (re.+ (str.to.re "888"))) (re.++ (re.* (re.* (str.to.re "999"))) (re.++ (re.union (re.+ (str.to.re "aa")) (re.union (str.to.re "b") (str.to.re "cc"))) (re.++ (re.union (re.+ (str.to.re "ddd")) (re.+ (str.to.re "e"))) (re.+ (re.* (str.to.re "ff"))))))))))))))
(assert (str.in.re var0 (re.++ (re.union (re.union (str.to.re "00") (str.to.re "111")) (re.* (str.to.re "2"))) (re.++ (re.union (re.union (str.to.re "333") (str.to.re "44")) (re.+ (str.to.re "5"))) (re.++ (re.* (re.union (str.to.re "666") (str.to.re "77"))) (re.++ (re.+ (re.+ (str.to.re "8"))) (re.++ (re.* (re.* (str.to.re "9"))) (re.++ (re.union (re.+ (str.to.re "aaa")) (re.+ (str.to.re "bbb"))) (re.++ (re.+ (re.union (str.to.re "c") (str.to.re "ddd"))) (re.++ (re.union (re.union (str.to.re "ee") (str.to.re "ff")) (re.union (str.to.re "g") (str.to.re "h"))) (re.++ (re.* (re.+ (str.to.re "iii"))) (re.* (re.union (str.to.re "jj") (str.to.re "k"))))))))))))))
(assert (str.in.re var0 (re.++ (re.+ (re.* (str.to.re "0"))) (re.++ (re.union (re.* (str.to.re "111")) (re.union (str.to.re "2") (str.to.re "3"))) (re.++ (re.* (re.* (str.to.re "44"))) (re.++ (re.union (re.+ (str.to.re "5")) (re.union (str.to.re "66") (str.to.re "77"))) (re.++ (re.+ (re.union (str.to.re "888") (str.to.re "99"))) (re.++ (re.* (re.+ (str.to.re "a"))) (re.++ (re.+ (re.union (str.to.re "bbb") (str.to.re "ccc"))) (re.++ (re.union (re.union (str.to.re "dd") (str.to.re "ee")) (re.+ (str.to.re "ff"))) (re.++ (re.* (re.+ (str.to.re "ggg"))) (re.union (re.* (str.to.re "hh")) (re.* (str.to.re "iii"))))))))))))))
(assert (str.in.re var0 (re.++ (re.+ (re.union (str.to.re "00") (str.to.re "11"))) (re.++ (re.* (re.* (str.to.re "22"))) (re.++ (re.+ (re.union (str.to.re "3") (str.to.re "44"))) (re.++ (re.union (re.+ (str.to.re "555")) (re.+ (str.to.re "6"))) (re.++ (re.* (re.+ (str.to.re "77"))) (re.++ (re.* (re.* (str.to.re "8"))) (re.++ (re.+ (re.union (str.to.re "999") (str.to.re "aa"))) (re.++ (re.union (re.* (str.to.re "bbb")) (re.+ (str.to.re "c"))) (re.++ (re.union (re.+ (str.to.re "dd")) (re.union (str.to.re "ee") (str.to.re "f"))) (re.+ (re.union (str.to.re "gg") (str.to.re "h"))))))))))))))
(assert (str.in.re var0 (re.++ (re.union (re.* (str.to.re "0")) (re.+ (str.to.re "1"))) (re.++ (re.* (re.union (str.to.re "22") (str.to.re "3"))) (re.++ (re.union (re.union (str.to.re "44") (str.to.re "555")) (re.* (str.to.re "6"))) (re.++ (re.+ (re.+ (str.to.re "77"))) (re.++ (re.* (re.* (str.to.re "88"))) (re.++ (re.union (re.union (str.to.re "99") (str.to.re "aaa")) (re.* (str.to.re "bbb"))) (re.++ (re.+ (re.* (str.to.re "ccc"))) (re.++ (re.+ (re.+ (str.to.re "dd"))) (re.++ (re.union (re.union (str.to.re "e") (str.to.re "ff")) (re.union (str.to.re "gg") (str.to.re "h"))) (re.union (re.+ (str.to.re "iii")) (re.union (str.to.re "j") (str.to.re "kk"))))))))))))))
(assert (str.in.re var0 (re.++ (re.+ (re.* (str.to.re "0"))) (re.++ (re.* (re.+ (str.to.re "11"))) (re.++ (re.union (re.* (str.to.re "222")) (re.+ (str.to.re "333"))) (re.++ (re.union (re.+ (str.to.re "444")) (re.* (str.to.re "55"))) (re.++ (re.union (re.union (str.to.re "666") (str.to.re "777")) (re.* (str.to.re "888"))) (re.++ (re.* (re.union (str.to.re "9") (str.to.re "a"))) (re.++ (re.union (re.+ (str.to.re "b")) (re.* (str.to.re "cc"))) (re.++ (re.+ (re.+ (str.to.re "ddd"))) (re.++ (re.union (re.union (str.to.re "ee") (str.to.re "f")) (re.+ (str.to.re "ggg"))) (re.* (re.* (str.to.re "h"))))))))))))))
(assert (str.in.re var0 (re.++ (re.* (re.* (str.to.re "000"))) (re.++ (re.union (re.union (str.to.re "1") (str.to.re "2")) (re.* (str.to.re "33"))) (re.++ (re.+ (re.* (str.to.re "444"))) (re.++ (re.+ (re.+ (str.to.re "555"))) (re.++ (re.* (re.* (str.to.re "6"))) (re.++ (re.* (re.* (str.to.re "7"))) (re.++ (re.+ (re.+ (str.to.re "88"))) (re.++ (re.+ (re.union (str.to.re "99") (str.to.re "aa"))) (re.++ (re.* (re.+ (str.to.re "b"))) (re.+ (re.union (str.to.re "cc") (str.to.re "d"))))))))))))))
(assert (str.in.re var0 (re.++ (re.* (re.+ (str.to.re "00"))) (re.++ (re.+ (re.* (str.to.re "11"))) (re.++ (re.union (re.+ (str.to.re "222")) (re.+ (str.to.re "333"))) (re.++ (re.+ (re.+ (str.to.re "44"))) (re.++ (re.+ (re.* (str.to.re "555"))) (re.++ (re.+ (re.+ (str.to.re "666"))) (re.++ (re.+ (re.* (str.to.re "77"))) (re.++ (re.union (re.* (str.to.re "88")) (re.* (str.to.re "999"))) (re.++ (re.+ (re.* (str.to.re "aaa"))) (re.* (re.* (str.to.re "bbb"))))))))))))))
(assert (str.in.re var0 (re.++ (re.+ (re.* (str.to.re "000"))) (re.++ (re.* (re.* (str.to.re "111"))) (re.++ (re.* (re.* (str.to.re "222"))) (re.++ (re.+ (re.+ (str.to.re "3"))) (re.++ (re.* (re.* (str.to.re "444"))) (re.++ (re.+ (re.union (str.to.re "55") (str.to.re "666"))) (re.++ (re.union (re.+ (str.to.re "777")) (re.union (str.to.re "888") (str.to.re "999"))) (re.++ (re.+ (re.+ (str.to.re "aaa"))) (re.++ (re.+ (re.* (str.to.re "bb"))) (re.* (re.* (str.to.re "ccc"))))))))))))))
(check-sat)